NAME : prob30b.6857.tour
COMMENT : Cost = 0_6857
COMMENT : Found by LKH [Keld Helsgaun] Sun Sep 17 01:06:31 2017
TYPE : TOUR
DIMENSION : 61
TOUR_SECTION
1
55
54
42
48
35
56
24
37
59
53
7
45
23
57
33
32
43
27
47
18
58
36
6
49
46
19
13
61
44
17
31
39
26
60
5
40
29
15
30
38
50
34
4
12
41
28
20
2
51
52
10
3
25
22
8
14
16
9
11
21
-1
EOF
